NAME: Christofides-11
BEST_KNOWN: 1042.11
COMMENT: 1042.110000
DIMENSION: 121
CAPACITY: 200
EDGE_WEIGHT_FORMAT: FUNCTION
EDGE_WEIGHT_TYPE: EXACT_2D
NODE_COORD_SECTION
1 0.00000 0.00000
2 15.00000 -44.00000
3 15.00000 -42.00000
4 21.00000 -40.00000
5 22.00000 -40.00000
6 21.00000 -38.00000
7 22.00000 -36.00000
8 24.00000 -36.00000
9 36.00000 -36.00000
10 25.00000 -38.00000
11 24.00000 -39.00000
12 25.00000 -40.00000
13 37.00000 -39.00000
14 30.00000 -40.00000
15 29.00000 -42.00000
16 26.00000 -42.00000
17 63.00000 -39.00000
18 63.00000 -37.00000
19 14.00000 -9.00000
20 66.00000 -39.00000
21 66.00000 -35.00000
22 66.00000 -32.00000
23 68.00000 -42.00000
24 68.00000 -36.00000
25 69.00000 -42.00000
26 69.00000 -40.00000
27 69.00000 -34.00000
28 72.00000 -42.00000
29 72.00000 -38.00000
30 80.00000 -30.00000
31 74.00000 -42.00000
32 74.00000 -40.00000
33 74.00000 -36.00000
34 75.00000 -44.00000
35 77.00000 -40.00000
36 75.00000 -37.00000
37 77.00000 -38.00000
38 76.00000 -4.00000
39 76.00000 -1.00000
40 76.00000 1.00000
41 75.00000 10.00000
42 79.00000 -2.00000
43 79.00000 1.00000
44 79.00000 7.00000
45 82.00000 -3.00000
46 82.00000 7.00000
47 84.00000 -3.00000
48 84.00000 -1.00000
49 84.00000 3.00000
50 86.00000 -3.00000
51 89.00000 1.00000
52 89.00000 5.00000
53 73.00000 35.00000
54 73.00000 38.00000
55 75.00000 36.00000
56 75.00000 40.00000
57 75.00000 44.00000
58 77.00000 35.00000
59 77.00000 41.00000
60 80.00000 32.00000
61 80.00000 43.00000
62 83.00000 37.00000
63 83.00000 39.00000
64 83.00000 44.00000
65 84.00000 41.00000
66 85.00000 35.00000
67 89.00000 44.00000
68 27.00000 38.00000
69 40.00000 35.00000
70 25.00000 40.00000
71 25.00000 42.00000
72 34.00000 41.00000
73 36.00000 44.00000
74 36.00000 38.00000
75 36.00000 42.00000
76 36.00000 44.00000
77 38.00000 38.00000
78 40.00000 40.00000
79 40.00000 43.00000
80 44.00000 41.00000
81 44.00000 45.00000
82 0.00000 -10.00000
83 0.00000 -5.00000
84 8.00000 -15.00000
85 7.00000 -10.00000
86 6.00000 -7.00000
87 4.00000 -5.00000
88 5.00000 -3.00000
89 1.00000 -3.00000
90 8.00000 -5.00000
91 11.00000 -6.00000
92 10.00000 -5.00000
93 8.00000 -4.00000
94 10.00000 -1.00000
95 12.00000 -1.00000
96 6.00000 0.00000
97 10.00000 0.00000
98 15.00000 0.00000
99 20.00000 10.00000
100 10.00000 5.00000
101 12.00000 6.00000
102 8.00000 4.00000
103 6.00000 3.00000
104 10.00000 10.00000
105 8.00000 8.00000
106 4.00000 5.00000
107 5.00000 6.00000
108 6.00000 9.00000
109 18.00000 -12.00000
110 23.00000 -7.00000
111 20.00000 5.00000
112 3.00000 -5.00000
113 5.00000 -9.00000
114 8.00000 -14.00000
115 15.00000 -8.00000
116 20.00000 1.00000
117 15.00000 7.00000
118 6.00000 -12.00000
119 15.00000 -10.00000
120 -5.00000 -5.00000
121 -5.00000 5.00000
DEMAND_SECTION
1 0
2 25
3 7
4 13
5 6
6 14
7 5
8 11
9 19
10 5
11 15
12 15
13 17
14 13
15 12
16 18
17 13
18 18
19 12
20 17
21 4
22 7
23 12
24 13
25 8
26 16
27 15
28 6
29 5
30 9
31 11
32 10
33 3
34 7
35 2
36 4
37 4
38 18
39 14
40 12
41 17
42 20
43 14
44 16
45 10
46 9
47 11
48 7
49 13
50 5
51 4
52 21
53 13
54 11
55 12
56 14
57 10
58 8
59 16
60 19
61 5
62 17
63 7
64 16
65 14
66 17
67 13
68 17
69 13
70 14
71 16
72 7
73 13
74 9
75 11
76 35
77 5
78 28
79 7
80 3
81 10
82 7
83 12
84 11
85 10
86 8
87 11
88 21
89 4
90 15
91 16
92 4
93 16
94 7
95 10
96 9
97 11
98 17
99 12
100 11
101 7
102 9
103 11
104 12
105 7
106 8
107 6
108 5
109 12
110 13
111 7
112 7
113 8
114 11
115 13
116 11
117 10
118 7
119 4
120 20
121 13
DEPOT_SECTION
1
-1
EOF
